output/convection_ilp.mps
NAME convection_srl_ilp
* Max problem is converted into Min one
ROWS
 N  OBJ
 L  constraint1_270
 L  constraint1_4440
 L  constraint1_6780
 L  constraint2_40
 L  constraint2_41
 L  constraint2_42
 L  constraint2_43
 L  constraint2_270
 L  constraint2_271
 L  constraint2_272
 L  constraint2_273
 L  constraint2_4440
 L  constraint2_4441
 L  constraint2_4442
 L  constraint2_4443
 L  constraint2_6780
 L  constraint2_6781
 L  constraint2_6782
 L  constraint2_6783
COLUMNS
    MARKER    'MARKER'                 'INTORG'
    Z_27_0_0  OBJ       -4.7816366653100528e-04
    Z_27_0_0  constraint1_270  1
    Z_27_0_0  constraint2_270  1
    Z_27_0_1  OBJ       -8.6559519420660320e-04
    Z_27_0_1  constraint1_270  1
    Z_27_0_1  constraint2_271  1
    Z_27_0_2  OBJ       -7.5962597376568219e-01
    Z_27_0_2  constraint1_270  1
    Z_27_0_2  constraint2_272  1
    Z_27_0_3  OBJ       -3.7225471810551492e-04
    Z_27_0_3  constraint1_270  1
    Z_27_0_3  constraint2_273  1
    Z_27_0_4  OBJ       -1.3865801265547462e-01
    Z_27_0_4  constraint1_270  1
    Z_444_0_0  OBJ       -2.3899604600257859e-04
    Z_444_0_0  constraint1_4440  1
    Z_444_0_0  constraint2_4440  1
    Z_444_0_1  OBJ       -1.5590578845232381e-03
    Z_444_0_1  constraint1_4440  1
    Z_444_0_1  constraint2_4441  1
    Z_444_0_2  OBJ       -6.1193174284815011e-01
    Z_444_0_2  constraint1_4440  1
    Z_444_0_2  constraint2_4442  1
    Z_444_0_3  OBJ       -3.0128522704804154e-04
    Z_444_0_3  constraint1_4440  1
    Z_444_0_3  constraint2_4443  1
    Z_444_0_4  OBJ       -2.8596891799427610e-01
    Z_444_0_4  constraint1_4440  1
    Z_678_0_0  OBJ       -1.7516483970839242e-04
    Z_678_0_0  constraint1_6780  1
    Z_678_0_0  constraint2_6780  1
    Z_678_0_1  OBJ       -3.2202334591298022e-03
    Z_678_0_1  constraint1_6780  1
    Z_678_0_1  constraint2_6781  1
    Z_678_0_2  OBJ       -7.4182867768874972e-01
    Z_678_0_2  constraint1_6780  1
    Z_678_0_2  constraint2_6782  1
    Z_678_0_3  OBJ       -3.2213544291012354e-04
    Z_678_0_3  constraint1_6780  1
    Z_678_0_3  constraint2_6783  1
    Z_678_0_4  OBJ       -1.5445378856950204e-01
    Z_678_0_4  constraint1_6780  1
    MARKER    'MARKER'                 'INTEND'
RHS
    RHS1      constraint1_270  1
    RHS1      constraint1_4440  1
    RHS1      constraint1_6780  1
    RHS1      constraint2_40  1
    RHS1      constraint2_41  1
    RHS1      constraint2_42  1
    RHS1      constraint2_43  1
    RHS1      constraint2_270  1
    RHS1      constraint2_271  1
    RHS1      constraint2_272  1
    RHS1      constraint2_273  1
    RHS1      constraint2_4440  1
    RHS1      constraint2_4441  1
    RHS1      constraint2_4442  1
    RHS1      constraint2_4443  1
    RHS1      constraint2_6780  1
    RHS1      constraint2_6781  1
    RHS1      constraint2_6782  1
    RHS1      constraint2_6783  1
BOUNDS
 UP BND1      Z_27_0_0  1
 UP BND1      Z_27_0_1  1
 UP BND1      Z_27_0_2  1
 UP BND1      Z_27_0_3  1
 UP BND1      Z_27_0_4  1
 UP BND1      Z_444_0_0  1
 UP BND1      Z_444_0_1  1
 UP BND1      Z_444_0_2  1
 UP BND1      Z_444_0_3  1
 UP BND1      Z_444_0_4  1
 UP BND1      Z_678_0_0  1
 UP BND1      Z_678_0_1  1
 UP BND1      Z_678_0_2  1
 UP BND1      Z_678_0_3  1
 UP BND1      Z_678_0_4  1
ENDATA
