output/convection_ilp.sol
# Solution for model convection_srl_ilp
# Objective value = 2.1133863943025819e+00
Z_27_0_0 0
Z_27_0_1 0
Z_27_0_2 1
Z_27_0_3 0
Z_27_0_4 0
Z_444_0_0 0
Z_444_0_1 0
Z_444_0_2 1
Z_444_0_3 0
Z_444_0_4 0
Z_678_0_0 0
Z_678_0_1 0
Z_678_0_2 1
Z_678_0_3 0
Z_678_0_4 0
